100
128
6
48
24
26
40
41
27
22
19
2
44
5
18
6
22
15
23
15
28
57
33
30
17
46
16
48
20
63
47
21
50
37
41
19
54
17
34
48
31
48
23
17
22
30
52
24
44
41
27
17
15
18
37
33
43
2
45
19
63
31
35
36
21
7
27
37
34
18
40
63
24
22
30
55
25
41
20
21
53
28
47
1
20
43
43
20
1
21
20
24
28
12
64
40
37
64
37
2
48
23